NAME : gr96.67328.tour
COMMENT : Cost = 22482_67328
COMMENT : Found by LKH [Keld Helsgaun] Thu Nov 16 17:24:53 2017
TYPE : TOUR
DIMENSION : 98
TOUR_SECTION
1
30
33
45
46
47
48
54
60
61
62
63
64
66
67
68
94
95
93
92
77
76
75
73
72
71
59
58
53
52
50
44
34
35
98
2
3
4
5
6
7
8
9
10
12
13
14
15
16
17
20
18
19
21
22
26
28
96
65
27
23
24
25
11
29
97
31
32
36
37
38
39
40
41
42
43
49
51
55
56
57
69
70
82
81
83
87
86
85
84
74
78
88
89
90
91
80
79
-1
EOF
